54 177 144 135 116 91 140 47 143 29 1 99 118 50 191 18 195 36 34 61 117 123 52 59 43 154 3 92 121 122 187 70 42 76 53 90 38 72 14 68 171 136 83 40 146 78 180 12 178 87 164 23 26 174 129 179 119 137 80 33 148 185 37 65 7 51 45 145 124 108 133 157 183 106 156 193 79 75 126 170 60 111 73 194 100 189 120 22 41 109 167 10 168 49 0 155 199 125 161 31 104 96 166 97 169 48 138 139 93 16 89 88 69 152 172 184 21 192 110 102 57 127 28 190 196 175 198 107 128 35 158 74 66 131 197 6 160 134 71 56 30 77 98 44 165 32 67 13 186 64 173 159 85 95 151 15 153 62 63 149 58 5 39 82 2 176 4 115 101 8 9 141 19 24 163 113 17 84 142 188 81 182 103 105 132 114 11 27 46 181 20 55 150 94 147 130 162 25 86 112